NAME : netgen22-5-4
COMMENT : Generated using the function generateClusteredNetwork from the R-package netgen (Bossek,2015) - Number of clusters: 5
TYPE : TSP
DIMENSION : 22
EDGE_WEIGHT_TYPE : EUC_2D
NODE_COORD_SECTION
1 32.5608848473 48.45085513
2 32.0299280506 21.6501194257
3 25.8412406745 31.2482957899
4 21.6912195558 44.4014953563
5 70.8549503714 54.5568258129
6 75.4586952699 48.9872252962
7 63.7195922224 54.5045660396
8 60.3064987222 59.1017389775
9 15.0017766079 70.8247128376
10 24.7223442663 72.6597847228
11 10.5405311317 73.6449425313
12 12.0750038405 63.7569309728
13 99.525271516 98.9582038467
14 85.6455633527 92.6631966211
15 93.0972023408 83.346772907
16 92.373706494 81.6916092588
17 48.7847498361 8.0142253516
18 51.6669532415 5.2777599198
19 50.7891051206 0.1164151124
20 55.0041102975 3.2130573536
21 49.5323802292 4.9432650625
22 54.5996245282 4.2130931633
EOF
